% Logging successfully configured
%%%mzn-stat: initTime=0.009941171
%%%mzn-stat: objective=393
%%%mzn-stat: nodes=2885
%%%mzn-stat: restarts=0
%%%mzn-stat: peakDepth=437
%%%mzn-stat: solveTime=0.075314594
%%%mzn-stat: variables=830
%%%mzn-stat: propagators=590
%%%mzn-stat: failures=167
%%%mzn-stat: propagations=19316
%%%mzn-stat: nogoods=167
%%%mzn-stat: numAtomicConstraintsPropagated=0
%%%mzn-stat: allDifferentNumber1TotalHallSetSize=579
%%%mzn-stat: allDifferentNumber1NumberOfConflicts=167
%%%mzn-stat: allDifferentNumber1MaxHallSetSize=50
%%%mzn-stat: allDifferentNumber1PropagationsTotal=3789
%%%mzn-stat: allDifferentNumber1PropagationsThatFoundConflict=167
%%%mzn-stat: circuitNumber2PropagationsThatFoundConflict=0
%%%mzn-stat: circuitNumber2TotalFixedEdgesAtConflict=0
%%%mzn-stat: circuitNumber2NumberOfConflicts=0
%%%mzn-stat: circuitNumber2PropagationsThatPruned=244
%%%mzn-stat: circuitNumber2PropagationsTotal=2582
%%%mzn-stat: AverageConflictSize=3.0479041916167664
%%%mzn-stat: NumUnitNogoodsLearned=0
%%%mzn-stat: AverageLearnedNogoodLength=3.0239520958083834
%%%mzn-stat: AverageBacktrackAmount=0
%%%mzn-stat: AverageLbd=3.0179640718562872
%%%mzn-stat: 2AutonomousSearchNumBackupCalled=395
%%%mzn-stat: 2AutonomousSearchNumPredicatesRemoved=0
%%%mzn-stat: 2AutonomousSearchNumCalls=396
%%%mzn-stat: 2AutonomousSearchNumPredicatesAdded=285
%%%mzn-stat: 2AutonomousSearchAverageSizeOfHeap=0.7196969696969697
%%%mzn-stat: 2AutonomousSearchNumAssignedPredicatesEncountered=285
%%%mzn-stat-end
maxleg = 393;
succ = array1d(1..50,[2, 11, 5, 7, 12, 3, 16, 6, 14, 17, 15, 9, 4, 20, 21, 19, 18, 8, 22, 1, 13, 29, 33, 27, 10, 36, 35, 25, 32, 24, 30, 34, 37, 43, 23, 38, 41, 48, 40, 49, 50, 44, 47, 28, 26, 31, 39, 42, 46, 45]);
% time elapsed: 0.35 s
----------
%%%mzn-stat: initTime=0.009941171
%%%mzn-stat: objective=364
%%%mzn-stat: nodes=3518
%%%mzn-stat: restarts=0
%%%mzn-stat: peakDepth=437
%%%mzn-stat: solveTime=0.087314568
%%%mzn-stat: variables=830
%%%mzn-stat: propagators=590
%%%mzn-stat: failures=212
%%%mzn-stat: propagations=22135
%%%mzn-stat: nogoods=212
%%%mzn-stat: numAtomicConstraintsPropagated=0
%%%mzn-stat: allDifferentNumber1TotalHallSetSize=917
%%%mzn-stat: allDifferentNumber1NumberOfConflicts=211
%%%mzn-stat: allDifferentNumber1MaxHallSetSize=50
%%%mzn-stat: allDifferentNumber1PropagationsTotal=4231
%%%mzn-stat: allDifferentNumber1PropagationsThatFoundConflict=211
%%%mzn-stat: circuitNumber2PropagationsThatFoundConflict=1
%%%mzn-stat: circuitNumber2TotalFixedEdgesAtConflict=34
%%%mzn-stat: circuitNumber2NumberOfConflicts=1
%%%mzn-stat: circuitNumber2PropagationsThatPruned=272
%%%mzn-stat: circuitNumber2PropagationsTotal=2851
%%%mzn-stat: AverageConflictSize=4.169811320754717
%%%mzn-stat: NumUnitNogoodsLearned=0
%%%mzn-stat: AverageLearnedNogoodLength=4.466981132075472
%%%mzn-stat: AverageBacktrackAmount=0
%%%mzn-stat: AverageLbd=3.957547169811321
%%%mzn-stat: 2AutonomousSearchNumBackupCalled=782
%%%mzn-stat: 2AutonomousSearchNumPredicatesRemoved=0
%%%mzn-stat: 2AutonomousSearchNumCalls=784
%%%mzn-stat: 2AutonomousSearchNumPredicatesAdded=562
%%%mzn-stat: 2AutonomousSearchAverageSizeOfHeap=1.0127551020408163
%%%mzn-stat: 2AutonomousSearchNumAssignedPredicatesEncountered=794
%%%mzn-stat-end
maxleg = 364;
succ = array1d(1..50,[2, 11, 5, 7, 12, 3, 16, 6, 14, 17, 15, 9, 4, 20, 21, 19, 18, 8, 22, 27, 13, 29, 1, 30, 10, 36, 35, 25, 32, 37, 24, 34, 41, 43, 23, 38, 33, 48, 40, 49, 50, 44, 47, 28, 26, 31, 39, 42, 46, 45]);
% time elapsed: 0.36 s
----------
%%%mzn-stat: initTime=0.009941171
%%%mzn-stat: objective=356
%%%mzn-stat: nodes=4010
%%%mzn-stat: restarts=0
%%%mzn-stat: peakDepth=437
%%%mzn-stat: solveTime=0.093058639
%%%mzn-stat: variables=830
%%%mzn-stat: propagators=590
%%%mzn-stat: failures=229
%%%mzn-stat: propagations=23935
%%%mzn-stat: nogoods=229
%%%mzn-stat: numAtomicConstraintsPropagated=0
%%%mzn-stat: allDifferentNumber1TotalHallSetSize=1004
%%%mzn-stat: allDifferentNumber1NumberOfConflicts=228
%%%mzn-stat: allDifferentNumber1MaxHallSetSize=50
%%%mzn-stat: allDifferentNumber1PropagationsTotal=4450
%%%mzn-stat: allDifferentNumber1PropagationsThatFoundConflict=228
%%%mzn-stat: circuitNumber2PropagationsThatFoundConflict=1
%%%mzn-stat: circuitNumber2TotalFixedEdgesAtConflict=34
%%%mzn-stat: circuitNumber2NumberOfConflicts=1
%%%mzn-stat: circuitNumber2PropagationsThatPruned=286
%%%mzn-stat: circuitNumber2PropagationsTotal=2982
%%%mzn-stat: AverageConflictSize=4.283842794759825
%%%mzn-stat: NumUnitNogoodsLearned=0
%%%mzn-stat: AverageLearnedNogoodLength=4.655021834061135
%%%mzn-stat: AverageBacktrackAmount=0
%%%mzn-stat: AverageLbd=4.139737991266376
%%%mzn-stat: 2AutonomousSearchNumBackupCalled=1146
%%%mzn-stat: 2AutonomousSearchNumPredicatesRemoved=0
%%%mzn-stat: 2AutonomousSearchNumCalls=1149
%%%mzn-stat: 2AutonomousSearchNumPredicatesAdded=695
%%%mzn-stat: 2AutonomousSearchAverageSizeOfHeap=1.1575282854656224
%%%mzn-stat: 2AutonomousSearchNumAssignedPredicatesEncountered=1330
%%%mzn-stat-end
maxleg = 356;
succ = array1d(1..50,[2, 11, 5, 7, 12, 3, 16, 6, 14, 17, 15, 9, 4, 20, 21, 19, 18, 8, 22, 27, 23, 29, 33, 30, 10, 36, 35, 25, 32, 31, 37, 34, 41, 43, 1, 48, 13, 45, 40, 44, 50, 38, 47, 42, 26, 49, 39, 46, 28, 24]);
% time elapsed: 0.36 s
----------
%%%mzn-stat: initTime=0.009941171
%%%mzn-stat: objective=348
%%%mzn-stat: nodes=4755
%%%mzn-stat: restarts=0
%%%mzn-stat: peakDepth=437
%%%mzn-stat: solveTime=0.106668427
%%%mzn-stat: variables=830
%%%mzn-stat: propagators=590
%%%mzn-stat: failures=277
%%%mzn-stat: propagations=27835
%%%mzn-stat: nogoods=277
%%%mzn-stat: numAtomicConstraintsPropagated=0
%%%mzn-stat: allDifferentNumber1TotalHallSetSize=1167
%%%mzn-stat: allDifferentNumber1NumberOfConflicts=275
%%%mzn-stat: allDifferentNumber1MaxHallSetSize=50
%%%mzn-stat: allDifferentNumber1PropagationsTotal=4996
%%%mzn-stat: allDifferentNumber1PropagationsThatFoundConflict=275
%%%mzn-stat: circuitNumber2PropagationsThatFoundConflict=1
%%%mzn-stat: circuitNumber2TotalFixedEdgesAtConflict=34
%%%mzn-stat: circuitNumber2NumberOfConflicts=1
%%%mzn-stat: circuitNumber2PropagationsThatPruned=310
%%%mzn-stat: circuitNumber2PropagationsTotal=3357
%%%mzn-stat: AverageConflictSize=4.256317689530686
%%%mzn-stat: NumUnitNogoodsLearned=0
%%%mzn-stat: AverageLearnedNogoodLength=4.790613718411552
%%%mzn-stat: AverageBacktrackAmount=0
%%%mzn-stat: AverageLbd=4.234657039711191
%%%mzn-stat: 2AutonomousSearchNumBackupCalled=1513
%%%mzn-stat: 2AutonomousSearchNumPredicatesRemoved=0
%%%mzn-stat: 2AutonomousSearchNumCalls=1517
%%%mzn-stat: 2AutonomousSearchNumPredicatesAdded=886
%%%mzn-stat: 2AutonomousSearchAverageSizeOfHeap=1.2933421226104154
%%%mzn-stat: 2AutonomousSearchNumAssignedPredicatesEncountered=1962
%%%mzn-stat-end
maxleg = 348;
succ = array1d(1..50,[2, 11, 5, 7, 12, 3, 16, 6, 14, 17, 15, 9, 4, 20, 21, 19, 18, 8, 22, 27, 23, 30, 33, 31, 10, 36, 35, 25, 13, 24, 46, 28, 37, 29, 1, 38, 41, 48, 32, 47, 50, 44, 34, 43, 26, 49, 39, 42, 40, 45]);
% time elapsed: 0.38 s
----------
%%%mzn-stat: initTime=0.009941171
%%%mzn-stat: objective=347
%%%mzn-stat: nodes=5170
%%%mzn-stat: restarts=0
%%%mzn-stat: peakDepth=437
%%%mzn-stat: solveTime=0.11123116
%%%mzn-stat: variables=830
%%%mzn-stat: propagators=590
%%%mzn-stat: failures=290
%%%mzn-stat: propagations=29170
%%%mzn-stat: nogoods=290
%%%mzn-stat: numAtomicConstraintsPropagated=0
%%%mzn-stat: allDifferentNumber1TotalHallSetSize=1279
%%%mzn-stat: allDifferentNumber1NumberOfConflicts=288
%%%mzn-stat: allDifferentNumber1MaxHallSetSize=50
%%%mzn-stat: allDifferentNumber1PropagationsTotal=5102
%%%mzn-stat: allDifferentNumber1PropagationsThatFoundConflict=288
%%%mzn-stat: circuitNumber2PropagationsThatFoundConflict=1
%%%mzn-stat: circuitNumber2TotalFixedEdgesAtConflict=34
%%%mzn-stat: circuitNumber2NumberOfConflicts=1
%%%mzn-stat: circuitNumber2PropagationsThatPruned=314
%%%mzn-stat: circuitNumber2PropagationsTotal=3426
%%%mzn-stat: AverageConflictSize=4.572413793103448
%%%mzn-stat: NumUnitNogoodsLearned=0
%%%mzn-stat: AverageLearnedNogoodLength=5.344827586206897
%%%mzn-stat: AverageBacktrackAmount=0
%%%mzn-stat: AverageLbd=4.524137931034483
%%%mzn-stat: 2AutonomousSearchNumBackupCalled=1861
%%%mzn-stat: 2AutonomousSearchNumPredicatesRemoved=0
%%%mzn-stat: 2AutonomousSearchNumCalls=1866
%%%mzn-stat: 2AutonomousSearchNumPredicatesAdded=1224
%%%mzn-stat: 2AutonomousSearchAverageSizeOfHeap=1.4431939978563773
%%%mzn-stat: 2AutonomousSearchNumAssignedPredicatesEncountered=2693
%%%mzn-stat-end
maxleg = 347;
succ = array1d(1..50,[2, 11, 5, 7, 12, 3, 16, 6, 14, 17, 15, 9, 4, 26, 21, 19, 18, 8, 22, 27, 23, 30, 33, 31, 10, 36, 35, 25, 13, 41, 46, 28, 37, 29, 1, 38, 24, 48, 32, 47, 50, 44, 34, 43, 20, 49, 39, 42, 40, 45]);
% time elapsed: 0.38 s
----------
%%%mzn-stat: initTime=0.009941171
%%%mzn-stat: objective=308
%%%mzn-stat: nodes=5753
%%%mzn-stat: restarts=0
%%%mzn-stat: peakDepth=437
%%%mzn-stat: solveTime=0.119139667
%%%mzn-stat: variables=830
%%%mzn-stat: propagators=590
%%%mzn-stat: failures=314
%%%mzn-stat: propagations=31632
%%%mzn-stat: nogoods=314
%%%mzn-stat: numAtomicConstraintsPropagated=0
%%%mzn-stat: allDifferentNumber1TotalHallSetSize=1439
%%%mzn-stat: allDifferentNumber1NumberOfConflicts=311
%%%mzn-stat: allDifferentNumber1MaxHallSetSize=50
%%%mzn-stat: allDifferentNumber1PropagationsTotal=5373
%%%mzn-stat: allDifferentNumber1PropagationsThatFoundConflict=311
%%%mzn-stat: circuitNumber2PropagationsThatFoundConflict=2
%%%mzn-stat: circuitNumber2TotalFixedEdgesAtConflict=68
%%%mzn-stat: circuitNumber2NumberOfConflicts=2
%%%mzn-stat: circuitNumber2PropagationsThatPruned=323
%%%mzn-stat: circuitNumber2PropagationsTotal=3627
%%%mzn-stat: AverageConflictSize=4.926751592356688
%%%mzn-stat: NumUnitNogoodsLearned=0
%%%mzn-stat: AverageLearnedNogoodLength=5.649681528662421
%%%mzn-stat: AverageBacktrackAmount=0
%%%mzn-stat: AverageLbd=4.550955414012739
%%%mzn-stat: 2AutonomousSearchNumBackupCalled=2241
%%%mzn-stat: 2AutonomousSearchNumPredicatesRemoved=0
%%%mzn-stat: 2AutonomousSearchNumCalls=2247
%%%mzn-stat: 2AutonomousSearchNumPredicatesAdded=1444
%%%mzn-stat: 2AutonomousSearchAverageSizeOfHeap=1.5629728526924789
%%%mzn-stat: 2AutonomousSearchNumAssignedPredicatesEncountered=3512
%%%mzn-stat-end
maxleg = 308;
succ = array1d(1..50,[2, 11, 5, 7, 12, 3, 16, 6, 14, 17, 15, 26, 4, 20, 21, 19, 18, 8, 22, 27, 23, 30, 33, 9, 10, 36, 35, 25, 13, 24, 41, 28, 37, 29, 1, 48, 31, 42, 32, 39, 50, 44, 47, 43, 38, 49, 40, 46, 34, 45]);
% time elapsed: 0.40 s
----------
%%%mzn-stat: initTime=0.009941171
%%%mzn-stat: objective=296
%%%mzn-stat: nodes=6165
%%%mzn-stat: restarts=0
%%%mzn-stat: peakDepth=437
%%%mzn-stat: solveTime=0.122473441
%%%mzn-stat: variables=830
%%%mzn-stat: propagators=590
%%%mzn-stat: failures=324
%%%mzn-stat: propagations=32982
%%%mzn-stat: nogoods=324
%%%mzn-stat: numAtomicConstraintsPropagated=0
%%%mzn-stat: allDifferentNumber1TotalHallSetSize=1468
%%%mzn-stat: allDifferentNumber1NumberOfConflicts=320
%%%mzn-stat: allDifferentNumber1MaxHallSetSize=50
%%%mzn-stat: allDifferentNumber1PropagationsTotal=5480
%%%mzn-stat: allDifferentNumber1PropagationsThatFoundConflict=320
%%%mzn-stat: circuitNumber2PropagationsThatFoundConflict=2
%%%mzn-stat: circuitNumber2TotalFixedEdgesAtConflict=68
%%%mzn-stat: circuitNumber2NumberOfConflicts=2
%%%mzn-stat: circuitNumber2PropagationsThatPruned=330
%%%mzn-stat: circuitNumber2PropagationsTotal=3699
%%%mzn-stat: AverageConflictSize=4.8919753086419755
%%%mzn-stat: NumUnitNogoodsLearned=0
%%%mzn-stat: AverageLearnedNogoodLength=5.7407407407407405
%%%mzn-stat: AverageBacktrackAmount=0
%%%mzn-stat: AverageLbd=4.6234567901234565
%%%mzn-stat: 2AutonomousSearchNumBackupCalled=2584
%%%mzn-stat: 2AutonomousSearchNumPredicatesRemoved=0
%%%mzn-stat: 2AutonomousSearchNumCalls=2591
%%%mzn-stat: 2AutonomousSearchNumPredicatesAdded=1528
%%%mzn-stat: 2AutonomousSearchAverageSizeOfHeap=1.6796603627942879
%%%mzn-stat: 2AutonomousSearchNumAssignedPredicatesEncountered=4352
%%%mzn-stat-end
maxleg = 296;
succ = array1d(1..50,[2, 11, 5, 7, 12, 3, 16, 6, 14, 17, 15, 26, 4, 20, 21, 19, 18, 8, 22, 27, 23, 30, 33, 9, 10, 36, 35, 25, 13, 24, 41, 28, 37, 29, 1, 48, 31, 46, 32, 47, 50, 44, 34, 43, 38, 49, 39, 42, 40, 45]);
% time elapsed: 0.40 s
----------
%%%mzn-stat: initTime=0.009941171
%%%mzn-stat: objective=277
%%%mzn-stat: nodes=6540
%%%mzn-stat: restarts=0
%%%mzn-stat: peakDepth=437
%%%mzn-stat: solveTime=0.126166472
%%%mzn-stat: variables=830
%%%mzn-stat: propagators=590
%%%mzn-stat: failures=328
%%%mzn-stat: propagations=34126
%%%mzn-stat: nogoods=328
%%%mzn-stat: numAtomicConstraintsPropagated=0
%%%mzn-stat: allDifferentNumber1TotalHallSetSize=1482
%%%mzn-stat: allDifferentNumber1NumberOfConflicts=324
%%%mzn-stat: allDifferentNumber1MaxHallSetSize=50
%%%mzn-stat: allDifferentNumber1PropagationsTotal=5545
%%%mzn-stat: allDifferentNumber1PropagationsThatFoundConflict=324
%%%mzn-stat: circuitNumber2PropagationsThatFoundConflict=2
%%%mzn-stat: circuitNumber2TotalFixedEdgesAtConflict=68
%%%mzn-stat: circuitNumber2NumberOfConflicts=2
%%%mzn-stat: circuitNumber2PropagationsThatPruned=330
%%%mzn-stat: circuitNumber2PropagationsTotal=3742
%%%mzn-stat: AverageConflictSize=4.884146341463414
%%%mzn-stat: NumUnitNogoodsLearned=0
%%%mzn-stat: AverageLearnedNogoodLength=5.777439024390244
%%%mzn-stat: AverageBacktrackAmount=0
%%%mzn-stat: AverageLbd=4.649390243902439
%%%mzn-stat: 2AutonomousSearchNumBackupCalled=2916
%%%mzn-stat: 2AutonomousSearchNumPredicatesRemoved=0
%%%mzn-stat: 2AutonomousSearchNumCalls=2924
%%%mzn-stat: 2AutonomousSearchNumPredicatesAdded=1583
%%%mzn-stat: 2AutonomousSearchAverageSizeOfHeap=1.7763337893296853
%%%mzn-stat: 2AutonomousSearchNumAssignedPredicatesEncountered=5194
%%%mzn-stat-end
maxleg = 277;
succ = array1d(1..50,[2, 11, 5, 7, 12, 3, 16, 6, 14, 17, 15, 26, 4, 20, 21, 19, 18, 8, 22, 27, 23, 30, 33, 9, 10, 36, 35, 25, 13, 24, 41, 28, 37, 29, 1, 48, 31, 46, 32, 49, 50, 44, 47, 40, 38, 43, 39, 42, 34, 45]);
% time elapsed: 0.40 s
----------
==========
% time elapsed: 0.40 s
%%%mzn-stat: initTime=0.009941171
%%%mzn-stat: objective=277
%%%mzn-stat: nodes=6540
%%%mzn-stat: restarts=0
%%%mzn-stat: peakDepth=437
%%%mzn-stat: solveTime=0.126586766
%%%mzn-stat: variables=830
%%%mzn-stat: propagators=590
%%%mzn-stat: failures=329
%%%mzn-stat: propagations=34248
%%%mzn-stat: nogoods=329
%%%mzn-stat: numAtomicConstraintsPropagated=0
%%%mzn-stat: allDifferentNumber1TotalHallSetSize=1532
%%%mzn-stat: allDifferentNumber1NumberOfConflicts=325
%%%mzn-stat: allDifferentNumber1MaxHallSetSize=50
%%%mzn-stat: allDifferentNumber1PropagationsTotal=5547
%%%mzn-stat: allDifferentNumber1PropagationsThatFoundConflict=325
%%%mzn-stat: circuitNumber2PropagationsThatFoundConflict=2
%%%mzn-stat: circuitNumber2TotalFixedEdgesAtConflict=68
%%%mzn-stat: circuitNumber2NumberOfConflicts=2
%%%mzn-stat: circuitNumber2PropagationsThatPruned=330
%%%mzn-stat: circuitNumber2PropagationsTotal=3743
%%%mzn-stat: AverageConflictSize=4.9361702127659575
%%%mzn-stat: NumUnitNogoodsLearned=1
%%%mzn-stat: AverageLearnedNogoodLength=5.762917933130699
%%%mzn-stat: AverageBacktrackAmount=0
%%%mzn-stat: AverageLbd=4.638297872340425
%%%mzn-stat: 2AutonomousSearchNumBackupCalled=2916
%%%mzn-stat: 2AutonomousSearchNumPredicatesRemoved=0
%%%mzn-stat: 2AutonomousSearchNumCalls=2924
%%%mzn-stat: 2AutonomousSearchNumPredicatesAdded=1765
%%%mzn-stat: 2AutonomousSearchAverageSizeOfHeap=1.7763337893296853
%%%mzn-stat: 2AutonomousSearchNumAssignedPredicatesEncountered=5194
%%%mzn-stat-end
